Maximize
  - 0.33620677901544 edge_0_1_0_0 - 3.191419042574 edge_0_2_0_0
   - 2.5476801789459 edge_0_6_0_0 - 2.5534056988895 edge_0_7_0_0
   - 1.6667857882274 edge_0_11_0_0 - 2.0263598088726 edge_0_15_0_0
   + 1.680016785450813 edge_1_2_0_0 + 0.983522848161937 edge_1_3_0_0
   + 1.386864686754512 edge_1_6_0_0 + 0.5133443293324133 edge_1_7_0_0
   + 1.018843761585131 edge_1_9_0_0 + 0.6386115176908659 edge_1_10_0_0
   + 1.119502261275182 edge_1_11_0_0 + 0.275671467752431 edge_1_12_0_0
   - 0.4584828362921919 edge_1_13_0_0 - 0.33959251773648 edge_1_14_0_0
   + 0.1069682254112 edge_1_15_0_0 + 3.102508679606808 edge_1_16_0_0
   + 0.4511979994870395 edge_2_1_0_0 + 2.335837897744421 edge_2_3_0_0
   + 0.3083691430886987 edge_2_4_0_0 + 1.483416365621957 edge_2_6_0_0
   + 1.151459033247577 edge_2_7_0_0 + 1.964125531480841 edge_2_8_0_0
   + 1.663040173327798 edge_2_9_0_0 + 0.8800010040028196 edge_2_10_0_0
   + 1.15943468538449 edge_2_11_0_0 + 0.4005968557850872 edge_2_12_0_0
   - 0.0866943359430914 edge_2_13_0_0 - 0.1054609683617 edge_2_14_0_0
   + 0.6167922429271216 edge_2_15_0_0 + 1.643648619334266 edge_2_16_0_0
   - 0.5699454894802611 edge_3_1_0_0 - 0.0994858104627079 edge_3_2_0_0
   + 0.1649620220054995 edge_3_4_0_0 + 0.226385377438792 edge_3_6_0_0
   - 0.2902068872796432 edge_3_7_0_0 + 0.3018803903918748 edge_3_9_0_0
   + 0.3302572993572827 edge_3_10_0_0 + 0.0504642579223344 edge_3_11_0_0
   - 0.9485673739451541 edge_3_12_0_0 - 0.5934041370236883 edge_3_15_0_0
   - 0.0784596105559674 edge_3_16_0_0 - 0.2613474142331434 edge_4_6_0_0
   + 0.179418606325167 edge_6_1_0_0 + 1.328276745714857 edge_6_2_0_0
   + 2.992982912809009 edge_6_3_0_0 + 1.38341235240791 edge_6_4_0_0
   + 1.207629336556144 edge_6_7_0_0 + 0.0156895363097683 edge_6_8_0_0
   + 1.827329048754098 edge_6_9_0_0 + 1.829701939614424 edge_6_10_0_0
   + 1.748858245717888 edge_6_11_0_0 + 0.628354611333321 edge_6_12_0_0
   + 0.1496037818350558 edge_6_13_0_0 + 0.6501084404703843 edge_6_14_0_0
   + 0.7234131969595191 edge_6_15_0_0 + 2.293083831590562 edge_6_16_0_0
   - 0.2597406611355133 edge_7_1_0_0 + 1.752536327228018 edge_7_2_0_0
   + 0.9542475050340433 edge_7_3_0_0 + 1.41702636136896 edge_7_4_0_0
   + 1.826008012689236 edge_7_6_0_0 + 0.6882462499916768 edge_7_8_0_0
   + 2.605914094537566 edge_7_9_0_0 + 1.680097529611908 edge_7_10_0_0
   + 1.434830016703862 edge_7_11_0_0 + 0.5497542946313003 edge_7_12_0_0
   - 0.0186203624584839 edge_7_13_0_0 + 0.7244431606873599 edge_7_14_0_0
   + 0.0766330685243197 edge_7_15_0_0 + 2.509361882285452 edge_7_16_0_0
   + 0.9384639737356378 edge_8_2_0_0 - 0.01125493063619 edge_8_4_0_0
   - 0.1406817624944239 edge_8_6_0_0 - 0.1256204218092671 edge_8_7_0_0
   - 1.204419521314035 edge_9_2_0_0 - 0.4301863697943631 edge_9_3_0_0
   - 1.108970676347919 edge_9_6_0_0 + 0.0540962314979597 edge_9_7_0_0
   + 0.3317279293713807 edge_9_10_0_0 + 0.1600018001408066 edge_9_11_0_0
   - 0.860875487470129 edge_10_7_0_0 - 0.0495005577570117 edge_10_9_0_0
   - 0.0845818180182287 edge_10_11_0_0 + 0.2791095840034934 edge_11_1_0_0
   + 0.4176724711913411 edge_11_2_0_0 + 0.4538752956016293 edge_11_3_0_0
   - 0.2608838421091085 edge_11_4_0_0 + 0.3802198775662457 edge_11_6_0_0
   + 0.7185629363612809 edge_11_7_0_0 + 1.337808616863098 edge_11_9_0_0
   + 0.6317401452826883 edge_11_10_0_0 + 1.003128605161485 edge_11_11_0_0
   + 2.215415730368848 edge_11_12_0_0 + 0.2272294951681408 edge_11_13_0_0
   + 0.545952678742878 edge_11_14_0_0 + 2.06989538527965 edge_11_15_0_0
   + 2.648580161424041 edge_11_16_0_0 - 0.768853005150417 edge_12_1_0_0
   - 1.018486131735298 edge_12_7_0_0 - 0.5359360155718372 edge_12_9_0_0
   - 0.0477807496582269 edge_12_10_0_0 + 0.0607914900142634 edge_12_11_0_0
   + 0.6753410189967365 edge_12_13_0_0 + 0.8512759489234401 edge_12_14_0_0
   + 0.9685389030633524 edge_12_15_0_0 + 1.018839388696033 edge_12_16_0_0
   - 0.4204287877654849 edge_13_11_0_0 + 0.3214539501762019 edge_13_12_0_0
   + 1.2368718773672 edge_13_14_0_0 - 1.146431680573436 edge_14_4_0_0
   - 1.740830511160296 edge_14_6_0_0 - 2.698487289533486 edge_14_7_0_0
   - 0.6115389482170016 edge_14_10_0_0 + 0.1529356502498575 edge_14_11_0_0
   + 0.4142529807335774 edge_14_12_0_0 + 1.6414838763256 edge_14_13_0_0
   + 1.291723429306624 edge_14_15_0_0 - 0.4210307726432599 edge_14_16_0_0
   - 0.4213068127189449 edge_15_1_0_0 + 6.92736e-05 edge_15_2_0_0
   - 0.3774146307694886 edge_15_3_0_0 - 0.6154425336667914 edge_15_4_0_0
   - 0.2073666582189096 edge_15_6_0_0 - 0.0860362664987766 edge_15_7_0_0
   - 0.0787819988779262 edge_15_9_0_0 - 0.1781207209232709 edge_15_10_0_0
   + 0.5808034879197566 edge_15_11_0_0 + 1.490656665288284 edge_15_12_0_0
   + 3.362493331520566 edge_15_13_0_0 + 3.687829173426969 edge_15_14_0_0
   + 1.551922690413195 edge_15_16_0_0 - 1.490632979088957 edge_16_15_0_0
Subject To
 one_parent_1: edge_0_1_0_0 + edge_2_1_0_0 + edge_3_1_0_0 + edge_6_1_0_0
   + edge_7_1_0_0 + edge_11_1_0_0 + edge_12_1_0_0 + edge_15_1_0_0 = 1
 consume_one_flow_unit_1: flow_0_1_0_0 - flow_1_2_0_0 - flow_1_3_0_0
   - flow_1_6_0_0 - flow_1_7_0_0 - flow_1_9_0_0 - flow_1_10_0_0
   - flow_1_11_0_0 - flow_1_12_0_0 - flow_1_13_0_0 - flow_1_14_0_0
   - flow_1_15_0_0 - flow_1_16_0_0 + flow_2_1_0_0 + flow_3_1_0_0
   + flow_6_1_0_0 + flow_7_1_0_0 + flow_11_1_0_0 + flow_12_1_0_0
   + flow_15_1_0_0 = 1
 one_parent_2: edge_0_2_0_0 + edge_1_2_0_0 + edge_3_2_0_0 + edge_6_2_0_0
   + edge_7_2_0_0 + edge_8_2_0_0 + edge_9_2_0_0 + edge_11_2_0_0
   + edge_15_2_0_0 = 1
 consume_one_flow_unit_2: flow_0_2_0_0 + flow_1_2_0_0 - flow_2_1_0_0
   - flow_2_3_0_0 - flow_2_4_0_0 - flow_2_6_0_0 - flow_2_7_0_0
   - flow_2_8_0_0 - flow_2_9_0_0 - flow_2_10_0_0 - flow_2_11_0_0
   - flow_2_12_0_0 - flow_2_13_0_0 - flow_2_14_0_0 - flow_2_15_0_0
   - flow_2_16_0_0 + flow_3_2_0_0 + flow_6_2_0_0 + flow_7_2_0_0
   + flow_8_2_0_0 + flow_9_2_0_0 + flow_11_2_0_0 + flow_15_2_0_0 = 1
 one_parent_3: edge_1_3_0_0 + edge_2_3_0_0 + edge_6_3_0_0 + edge_7_3_0_0
   + edge_9_3_0_0 + edge_11_3_0_0 + edge_15_3_0_0 = 1
 consume_one_flow_unit_3: flow_1_3_0_0 + flow_2_3_0_0 - flow_3_1_0_0
   - flow_3_2_0_0 - flow_3_4_0_0 - flow_3_6_0_0 - flow_3_7_0_0
   - flow_3_9_0_0 - flow_3_10_0_0 - flow_3_11_0_0 - flow_3_12_0_0
   - flow_3_15_0_0 - flow_3_16_0_0 + flow_6_3_0_0 + flow_7_3_0_0
   + flow_9_3_0_0 + flow_11_3_0_0 + flow_15_3_0_0 = 1
 one_parent_4: edge_2_4_0_0 + edge_3_4_0_0 + edge_6_4_0_0 + edge_7_4_0_0
   + edge_8_4_0_0 + edge_11_4_0_0 + edge_14_4_0_0 + edge_15_4_0_0 = 1
 consume_one_flow_unit_4: flow_2_4_0_0 + flow_3_4_0_0 - flow_4_6_0_0
   + flow_6_4_0_0 + flow_7_4_0_0 + flow_8_4_0_0 + flow_11_4_0_0
   + flow_14_4_0_0 + flow_15_4_0_0 = 1
 one_parent_5: = 1
 consume_one_flow_unit_5: = 1
 one_parent_6: edge_0_6_0_0 + edge_1_6_0_0 + edge_2_6_0_0 + edge_3_6_0_0
   + edge_4_6_0_0 + edge_7_6_0_0 + edge_8_6_0_0 + edge_9_6_0_0
   + edge_11_6_0_0 + edge_14_6_0_0 + edge_15_6_0_0 = 1
 consume_one_flow_unit_6: flow_0_6_0_0 + flow_1_6_0_0 + flow_2_6_0_0
   + flow_3_6_0_0 + flow_4_6_0_0 - flow_6_1_0_0 - flow_6_2_0_0
   - flow_6_3_0_0 - flow_6_4_0_0 - flow_6_7_0_0 - flow_6_8_0_0
   - flow_6_9_0_0 - flow_6_10_0_0 - flow_6_11_0_0 - flow_6_12_0_0
   - flow_6_13_0_0 - flow_6_14_0_0 - flow_6_15_0_0 - flow_6_16_0_0
   + flow_7_6_0_0 + flow_8_6_0_0 + flow_9_6_0_0 + flow_11_6_0_0
   + flow_14_6_0_0 + flow_15_6_0_0 = 1
 one_parent_7: edge_0_7_0_0 + edge_1_7_0_0 + edge_2_7_0_0 + edge_3_7_0_0
   + edge_6_7_0_0 + edge_8_7_0_0 + edge_9_7_0_0 + edge_10_7_0_0
   + edge_11_7_0_0 + edge_12_7_0_0 + edge_14_7_0_0 + edge_15_7_0_0 = 1
 consume_one_flow_unit_7: flow_0_7_0_0 + flow_1_7_0_0 + flow_2_7_0_0
   + flow_3_7_0_0 + flow_6_7_0_0 - flow_7_1_0_0 - flow_7_2_0_0
   - flow_7_3_0_0 - flow_7_4_0_0 - flow_7_6_0_0 - flow_7_8_0_0
   - flow_7_9_0_0 - flow_7_10_0_0 - flow_7_11_0_0 - flow_7_12_0_0
   - flow_7_13_0_0 - flow_7_14_0_0 - flow_7_15_0_0 - flow_7_16_0_0
   + flow_8_7_0_0 + flow_9_7_0_0 + flow_10_7_0_0 + flow_11_7_0_0
   + flow_12_7_0_0 + flow_14_7_0_0 + flow_15_7_0_0 = 1
 one_parent_8: edge_2_8_0_0 + edge_6_8_0_0 + edge_7_8_0_0 = 1
 consume_one_flow_unit_8: flow_2_8_0_0 + flow_6_8_0_0 + flow_7_8_0_0
   - flow_8_2_0_0 - flow_8_4_0_0 - flow_8_6_0_0 - flow_8_7_0_0 = 1
 one_parent_9: edge_1_9_0_0 + edge_2_9_0_0 + edge_3_9_0_0 + edge_6_9_0_0
   + edge_7_9_0_0 + edge_10_9_0_0 + edge_11_9_0_0 + edge_12_9_0_0
   + edge_15_9_0_0 = 1
 consume_one_flow_unit_9: flow_1_9_0_0 + flow_2_9_0_0 + flow_3_9_0_0
   + flow_6_9_0_0 + flow_7_9_0_0 - flow_9_2_0_0 - flow_9_3_0_0
   - flow_9_6_0_0 - flow_9_7_0_0 - flow_9_10_0_0 - flow_9_11_0_0
   + flow_10_9_0_0 + flow_11_9_0_0 + flow_12_9_0_0 + flow_15_9_0_0 = 1
 one_parent_10: edge_1_10_0_0 + edge_2_10_0_0 + edge_3_10_0_0
   + edge_6_10_0_0 + edge_7_10_0_0 + edge_9_10_0_0 + edge_11_10_0_0
   + edge_12_10_0_0 + edge_14_10_0_0 + edge_15_10_0_0 = 1
 consume_one_flow_unit_10: flow_1_10_0_0 + flow_2_10_0_0 + flow_3_10_0_0
   + flow_6_10_0_0 + flow_7_10_0_0 + flow_9_10_0_0 - flow_10_7_0_0
   - flow_10_9_0_0 - flow_10_11_0_0 + flow_11_10_0_0 + flow_12_10_0_0
   + flow_14_10_0_0 + flow_15_10_0_0 = 1
 one_parent_11: edge_0_11_0_0 + edge_1_11_0_0 + edge_2_11_0_0
   + edge_3_11_0_0 + edge_6_11_0_0 + edge_7_11_0_0 + edge_9_11_0_0
   + edge_10_11_0_0 + edge_11_11_0_0 + edge_12_11_0_0 + edge_13_11_0_0
   + edge_14_11_0_0 + edge_15_11_0_0 = 1
 consume_one_flow_unit_11: flow_0_11_0_0 + flow_1_11_0_0 + flow_2_11_0_0
   + flow_3_11_0_0 + flow_6_11_0_0 + flow_7_11_0_0 + flow_9_11_0_0
   + flow_10_11_0_0 - flow_11_1_0_0 - flow_11_2_0_0 - flow_11_3_0_0
   - flow_11_4_0_0 - flow_11_6_0_0 - flow_11_7_0_0 - flow_11_9_0_0
   - flow_11_10_0_0 - flow_11_12_0_0 - flow_11_13_0_0 - flow_11_14_0_0
   - flow_11_15_0_0 - flow_11_16_0_0 + flow_12_11_0_0 + flow_13_11_0_0
   + flow_14_11_0_0 + flow_15_11_0_0 = 1
 one_parent_12: edge_1_12_0_0 + edge_2_12_0_0 + edge_3_12_0_0
   + edge_6_12_0_0 + edge_7_12_0_0 + edge_11_12_0_0 + edge_13_12_0_0
   + edge_14_12_0_0 + edge_15_12_0_0 = 1
 consume_one_flow_unit_12: flow_1_12_0_0 + flow_2_12_0_0 + flow_3_12_0_0
   + flow_6_12_0_0 + flow_7_12_0_0 + flow_11_12_0_0 - flow_12_1_0_0
   - flow_12_7_0_0 - flow_12_9_0_0 - flow_12_10_0_0 - flow_12_11_0_0
   - flow_12_13_0_0 - flow_12_14_0_0 - flow_12_15_0_0 - flow_12_16_0_0
   + flow_13_12_0_0 + flow_14_12_0_0 + flow_15_12_0_0 = 1
 one_parent_13: edge_1_13_0_0 + edge_2_13_0_0 + edge_6_13_0_0
   + edge_7_13_0_0 + edge_11_13_0_0 + edge_12_13_0_0 + edge_14_13_0_0
   + edge_15_13_0_0 = 1
 consume_one_flow_unit_13: flow_1_13_0_0 + flow_2_13_0_0 + flow_6_13_0_0
   + flow_7_13_0_0 + flow_11_13_0_0 + flow_12_13_0_0 - flow_13_11_0_0
   - flow_13_12_0_0 - flow_13_14_0_0 + flow_14_13_0_0 + flow_15_13_0_0 = 1
 one_parent_14: edge_1_14_0_0 + edge_2_14_0_0 + edge_6_14_0_0
   + edge_7_14_0_0 + edge_11_14_0_0 + edge_12_14_0_0 + edge_13_14_0_0
   + edge_15_14_0_0 = 1
 consume_one_flow_unit_14: flow_1_14_0_0 + flow_2_14_0_0 + flow_6_14_0_0
   + flow_7_14_0_0 + flow_11_14_0_0 + flow_12_14_0_0 + flow_13_14_0_0
   - flow_14_4_0_0 - flow_14_6_0_0 - flow_14_7_0_0 - flow_14_10_0_0
   - flow_14_11_0_0 - flow_14_12_0_0 - flow_14_13_0_0 - flow_14_15_0_0
   - flow_14_16_0_0 + flow_15_14_0_0 = 1
 one_parent_15: edge_0_15_0_0 + edge_1_15_0_0 + edge_2_15_0_0
   + edge_3_15_0_0 + edge_6_15_0_0 + edge_7_15_0_0 + edge_11_15_0_0
   + edge_12_15_0_0 + edge_14_15_0_0 + edge_16_15_0_0 = 1
 consume_one_flow_unit_15: flow_0_15_0_0 + flow_1_15_0_0 + flow_2_15_0_0
   + flow_3_15_0_0 + flow_6_15_0_0 + flow_7_15_0_0 + flow_11_15_0_0
   + flow_12_15_0_0 + flow_14_15_0_0 - flow_15_1_0_0 - flow_15_2_0_0
   - flow_15_3_0_0 - flow_15_4_0_0 - flow_15_6_0_0 - flow_15_7_0_0
   - flow_15_9_0_0 - flow_15_10_0_0 - flow_15_11_0_0 - flow_15_12_0_0
   - flow_15_13_0_0 - flow_15_14_0_0 - flow_15_16_0_0 + flow_16_15_0_0 = 1
 one_parent_16: edge_1_16_0_0 + edge_2_16_0_0 + edge_3_16_0_0
   + edge_6_16_0_0 + edge_7_16_0_0 + edge_11_16_0_0 + edge_12_16_0_0
   + edge_14_16_0_0 + edge_15_16_0_0 = 1
 consume_one_flow_unit_16: flow_1_16_0_0 + flow_2_16_0_0 + flow_3_16_0_0
   + flow_6_16_0_0 + flow_7_16_0_0 + flow_11_16_0_0 + flow_12_16_0_0
   + flow_14_16_0_0 + flow_15_16_0_0 - flow_16_15_0_0 = 1
 root_flow: flow_0_1_0_0 + flow_0_2_0_0 + flow_0_6_0_0 + flow_0_7_0_0
   + flow_0_11_0_0 + flow_0_15_0_0 = 16
 inactive_no_flow_0_1_0_0: flow_0_1_0_0 - 1000 edge_0_1_0_0 <= 0
 inactive_no_flow_0_2_0_0: flow_0_2_0_0 - 1000 edge_0_2_0_0 <= 0
 inactive_no_flow_0_6_0_0: flow_0_6_0_0 - 1000 edge_0_6_0_0 <= 0
 inactive_no_flow_0_7_0_0: flow_0_7_0_0 - 1000 edge_0_7_0_0 <= 0
 inactive_no_flow_0_11_0_0: flow_0_11_0_0 - 1000 edge_0_11_0_0 <= 0
 inactive_no_flow_0_15_0_0: flow_0_15_0_0 - 1000 edge_0_15_0_0 <= 0
 inactive_no_flow_1_2_0_0: flow_1_2_0_0 - 1000 edge_1_2_0_0 <= 0
 inactive_no_flow_1_3_0_0: flow_1_3_0_0 - 1000 edge_1_3_0_0 <= 0
 inactive_no_flow_1_6_0_0: flow_1_6_0_0 - 1000 edge_1_6_0_0 <= 0
 inactive_no_flow_1_7_0_0: flow_1_7_0_0 - 1000 edge_1_7_0_0 <= 0
 inactive_no_flow_1_9_0_0: flow_1_9_0_0 - 1000 edge_1_9_0_0 <= 0
 inactive_no_flow_1_10_0_0: flow_1_10_0_0 - 1000 edge_1_10_0_0 <= 0
 inactive_no_flow_1_11_0_0: flow_1_11_0_0 - 1000 edge_1_11_0_0 <= 0
 inactive_no_flow_1_12_0_0: flow_1_12_0_0 - 1000 edge_1_12_0_0 <= 0
 inactive_no_flow_1_13_0_0: flow_1_13_0_0 - 1000 edge_1_13_0_0 <= 0
 inactive_no_flow_1_14_0_0: flow_1_14_0_0 - 1000 edge_1_14_0_0 <= 0
 inactive_no_flow_1_15_0_0: flow_1_15_0_0 - 1000 edge_1_15_0_0 <= 0
 inactive_no_flow_1_16_0_0: flow_1_16_0_0 - 1000 edge_1_16_0_0 <= 0
 inactive_no_flow_2_1_0_0: flow_2_1_0_0 - 1000 edge_2_1_0_0 <= 0
 inactive_no_flow_2_3_0_0: flow_2_3_0_0 - 1000 edge_2_3_0_0 <= 0
 inactive_no_flow_2_4_0_0: flow_2_4_0_0 - 1000 edge_2_4_0_0 <= 0
 inactive_no_flow_2_6_0_0: flow_2_6_0_0 - 1000 edge_2_6_0_0 <= 0
 inactive_no_flow_2_7_0_0: flow_2_7_0_0 - 1000 edge_2_7_0_0 <= 0
 inactive_no_flow_2_8_0_0: flow_2_8_0_0 - 1000 edge_2_8_0_0 <= 0
 inactive_no_flow_2_9_0_0: flow_2_9_0_0 - 1000 edge_2_9_0_0 <= 0
 inactive_no_flow_2_10_0_0: flow_2_10_0_0 - 1000 edge_2_10_0_0 <= 0
 inactive_no_flow_2_11_0_0: flow_2_11_0_0 - 1000 edge_2_11_0_0 <= 0
 inactive_no_flow_2_12_0_0: flow_2_12_0_0 - 1000 edge_2_12_0_0 <= 0
 inactive_no_flow_2_13_0_0: flow_2_13_0_0 - 1000 edge_2_13_0_0 <= 0
 inactive_no_flow_2_14_0_0: flow_2_14_0_0 - 1000 edge_2_14_0_0 <= 0
 inactive_no_flow_2_15_0_0: flow_2_15_0_0 - 1000 edge_2_15_0_0 <= 0
 inactive_no_flow_2_16_0_0: flow_2_16_0_0 - 1000 edge_2_16_0_0 <= 0
 inactive_no_flow_3_1_0_0: flow_3_1_0_0 - 1000 edge_3_1_0_0 <= 0
 inactive_no_flow_3_2_0_0: flow_3_2_0_0 - 1000 edge_3_2_0_0 <= 0
 inactive_no_flow_3_4_0_0: flow_3_4_0_0 - 1000 edge_3_4_0_0 <= 0
 inactive_no_flow_3_6_0_0: flow_3_6_0_0 - 1000 edge_3_6_0_0 <= 0
 inactive_no_flow_3_7_0_0: flow_3_7_0_0 - 1000 edge_3_7_0_0 <= 0
 inactive_no_flow_3_9_0_0: flow_3_9_0_0 - 1000 edge_3_9_0_0 <= 0
 inactive_no_flow_3_10_0_0: flow_3_10_0_0 - 1000 edge_3_10_0_0 <= 0
 inactive_no_flow_3_11_0_0: flow_3_11_0_0 - 1000 edge_3_11_0_0 <= 0
 inactive_no_flow_3_12_0_0: flow_3_12_0_0 - 1000 edge_3_12_0_0 <= 0
 inactive_no_flow_3_15_0_0: flow_3_15_0_0 - 1000 edge_3_15_0_0 <= 0
 inactive_no_flow_3_16_0_0: flow_3_16_0_0 - 1000 edge_3_16_0_0 <= 0
 inactive_no_flow_4_6_0_0: flow_4_6_0_0 - 1000 edge_4_6_0_0 <= 0
 inactive_no_flow_6_1_0_0: flow_6_1_0_0 - 1000 edge_6_1_0_0 <= 0
 inactive_no_flow_6_2_0_0: flow_6_2_0_0 - 1000 edge_6_2_0_0 <= 0
 inactive_no_flow_6_3_0_0: flow_6_3_0_0 - 1000 edge_6_3_0_0 <= 0
 inactive_no_flow_6_4_0_0: flow_6_4_0_0 - 1000 edge_6_4_0_0 <= 0
 inactive_no_flow_6_7_0_0: flow_6_7_0_0 - 1000 edge_6_7_0_0 <= 0
 inactive_no_flow_6_8_0_0: flow_6_8_0_0 - 1000 edge_6_8_0_0 <= 0
 inactive_no_flow_6_9_0_0: flow_6_9_0_0 - 1000 edge_6_9_0_0 <= 0
 inactive_no_flow_6_10_0_0: flow_6_10_0_0 - 1000 edge_6_10_0_0 <= 0
 inactive_no_flow_6_11_0_0: flow_6_11_0_0 - 1000 edge_6_11_0_0 <= 0
 inactive_no_flow_6_12_0_0: flow_6_12_0_0 - 1000 edge_6_12_0_0 <= 0
 inactive_no_flow_6_13_0_0: flow_6_13_0_0 - 1000 edge_6_13_0_0 <= 0
 inactive_no_flow_6_14_0_0: flow_6_14_0_0 - 1000 edge_6_14_0_0 <= 0
 inactive_no_flow_6_15_0_0: flow_6_15_0_0 - 1000 edge_6_15_0_0 <= 0
 inactive_no_flow_6_16_0_0: flow_6_16_0_0 - 1000 edge_6_16_0_0 <= 0
 inactive_no_flow_7_1_0_0: flow_7_1_0_0 - 1000 edge_7_1_0_0 <= 0
 inactive_no_flow_7_2_0_0: flow_7_2_0_0 - 1000 edge_7_2_0_0 <= 0
 inactive_no_flow_7_3_0_0: flow_7_3_0_0 - 1000 edge_7_3_0_0 <= 0
 inactive_no_flow_7_4_0_0: flow_7_4_0_0 - 1000 edge_7_4_0_0 <= 0
 inactive_no_flow_7_6_0_0: flow_7_6_0_0 - 1000 edge_7_6_0_0 <= 0
 inactive_no_flow_7_8_0_0: flow_7_8_0_0 - 1000 edge_7_8_0_0 <= 0
 inactive_no_flow_7_9_0_0: flow_7_9_0_0 - 1000 edge_7_9_0_0 <= 0
 inactive_no_flow_7_10_0_0: flow_7_10_0_0 - 1000 edge_7_10_0_0 <= 0
 inactive_no_flow_7_11_0_0: flow_7_11_0_0 - 1000 edge_7_11_0_0 <= 0
 inactive_no_flow_7_12_0_0: flow_7_12_0_0 - 1000 edge_7_12_0_0 <= 0
 inactive_no_flow_7_13_0_0: flow_7_13_0_0 - 1000 edge_7_13_0_0 <= 0
 inactive_no_flow_7_14_0_0: flow_7_14_0_0 - 1000 edge_7_14_0_0 <= 0
 inactive_no_flow_7_15_0_0: flow_7_15_0_0 - 1000 edge_7_15_0_0 <= 0
 inactive_no_flow_7_16_0_0: flow_7_16_0_0 - 1000 edge_7_16_0_0 <= 0
 inactive_no_flow_8_2_0_0: flow_8_2_0_0 - 1000 edge_8_2_0_0 <= 0
 inactive_no_flow_8_4_0_0: flow_8_4_0_0 - 1000 edge_8_4_0_0 <= 0
 inactive_no_flow_8_6_0_0: flow_8_6_0_0 - 1000 edge_8_6_0_0 <= 0
 inactive_no_flow_8_7_0_0: flow_8_7_0_0 - 1000 edge_8_7_0_0 <= 0
 inactive_no_flow_9_2_0_0: flow_9_2_0_0 - 1000 edge_9_2_0_0 <= 0
 inactive_no_flow_9_3_0_0: flow_9_3_0_0 - 1000 edge_9_3_0_0 <= 0
 inactive_no_flow_9_6_0_0: flow_9_6_0_0 - 1000 edge_9_6_0_0 <= 0
 inactive_no_flow_9_7_0_0: flow_9_7_0_0 - 1000 edge_9_7_0_0 <= 0
 inactive_no_flow_9_10_0_0: flow_9_10_0_0 - 1000 edge_9_10_0_0 <= 0
 inactive_no_flow_9_11_0_0: flow_9_11_0_0 - 1000 edge_9_11_0_0 <= 0
 inactive_no_flow_10_7_0_0: flow_10_7_0_0 - 1000 edge_10_7_0_0 <= 0
 inactive_no_flow_10_9_0_0: flow_10_9_0_0 - 1000 edge_10_9_0_0 <= 0
 inactive_no_flow_10_11_0_0: flow_10_11_0_0 - 1000 edge_10_11_0_0 <= 0
 inactive_no_flow_11_1_0_0: flow_11_1_0_0 - 1000 edge_11_1_0_0 <= 0
 inactive_no_flow_11_2_0_0: flow_11_2_0_0 - 1000 edge_11_2_0_0 <= 0
 inactive_no_flow_11_3_0_0: flow_11_3_0_0 - 1000 edge_11_3_0_0 <= 0
 inactive_no_flow_11_4_0_0: flow_11_4_0_0 - 1000 edge_11_4_0_0 <= 0
 inactive_no_flow_11_6_0_0: flow_11_6_0_0 - 1000 edge_11_6_0_0 <= 0
 inactive_no_flow_11_7_0_0: flow_11_7_0_0 - 1000 edge_11_7_0_0 <= 0
 inactive_no_flow_11_9_0_0: flow_11_9_0_0 - 1000 edge_11_9_0_0 <= 0
 inactive_no_flow_11_10_0_0: flow_11_10_0_0 - 1000 edge_11_10_0_0 <= 0
 inactive_no_flow_11_11_0_0: flow_11_11_0_0 - 1000 edge_11_11_0_0 <= 0
 inactive_no_flow_11_12_0_0: flow_11_12_0_0 - 1000 edge_11_12_0_0 <= 0
 inactive_no_flow_11_13_0_0: flow_11_13_0_0 - 1000 edge_11_13_0_0 <= 0
 inactive_no_flow_11_14_0_0: flow_11_14_0_0 - 1000 edge_11_14_0_0 <= 0
 inactive_no_flow_11_15_0_0: flow_11_15_0_0 - 1000 edge_11_15_0_0 <= 0
 inactive_no_flow_11_16_0_0: flow_11_16_0_0 - 1000 edge_11_16_0_0 <= 0
 inactive_no_flow_12_1_0_0: flow_12_1_0_0 - 1000 edge_12_1_0_0 <= 0
 inactive_no_flow_12_7_0_0: flow_12_7_0_0 - 1000 edge_12_7_0_0 <= 0
 inactive_no_flow_12_9_0_0: flow_12_9_0_0 - 1000 edge_12_9_0_0 <= 0
 inactive_no_flow_12_10_0_0: flow_12_10_0_0 - 1000 edge_12_10_0_0 <= 0
 inactive_no_flow_12_11_0_0: flow_12_11_0_0 - 1000 edge_12_11_0_0 <= 0
 inactive_no_flow_12_13_0_0: flow_12_13_0_0 - 1000 edge_12_13_0_0 <= 0
 inactive_no_flow_12_14_0_0: flow_12_14_0_0 - 1000 edge_12_14_0_0 <= 0
 inactive_no_flow_12_15_0_0: flow_12_15_0_0 - 1000 edge_12_15_0_0 <= 0
 inactive_no_flow_12_16_0_0: flow_12_16_0_0 - 1000 edge_12_16_0_0 <= 0
 inactive_no_flow_13_11_0_0: flow_13_11_0_0 - 1000 edge_13_11_0_0 <= 0
 inactive_no_flow_13_12_0_0: flow_13_12_0_0 - 1000 edge_13_12_0_0 <= 0
 inactive_no_flow_13_14_0_0: flow_13_14_0_0 - 1000 edge_13_14_0_0 <= 0
 inactive_no_flow_14_4_0_0: flow_14_4_0_0 - 1000 edge_14_4_0_0 <= 0
 inactive_no_flow_14_6_0_0: flow_14_6_0_0 - 1000 edge_14_6_0_0 <= 0
 inactive_no_flow_14_7_0_0: flow_14_7_0_0 - 1000 edge_14_7_0_0 <= 0
 inactive_no_flow_14_10_0_0: flow_14_10_0_0 - 1000 edge_14_10_0_0 <= 0
 inactive_no_flow_14_11_0_0: flow_14_11_0_0 - 1000 edge_14_11_0_0 <= 0
 inactive_no_flow_14_12_0_0: flow_14_12_0_0 - 1000 edge_14_12_0_0 <= 0
 inactive_no_flow_14_13_0_0: flow_14_13_0_0 - 1000 edge_14_13_0_0 <= 0
 inactive_no_flow_14_15_0_0: flow_14_15_0_0 - 1000 edge_14_15_0_0 <= 0
 inactive_no_flow_14_16_0_0: flow_14_16_0_0 - 1000 edge_14_16_0_0 <= 0
 inactive_no_flow_15_1_0_0: flow_15_1_0_0 - 1000 edge_15_1_0_0 <= 0
 inactive_no_flow_15_2_0_0: flow_15_2_0_0 - 1000 edge_15_2_0_0 <= 0
 inactive_no_flow_15_3_0_0: flow_15_3_0_0 - 1000 edge_15_3_0_0 <= 0
 inactive_no_flow_15_4_0_0: flow_15_4_0_0 - 1000 edge_15_4_0_0 <= 0
 inactive_no_flow_15_6_0_0: flow_15_6_0_0 - 1000 edge_15_6_0_0 <= 0
 inactive_no_flow_15_7_0_0: flow_15_7_0_0 - 1000 edge_15_7_0_0 <= 0
 inactive_no_flow_15_9_0_0: flow_15_9_0_0 - 1000 edge_15_9_0_0 <= 0
 inactive_no_flow_15_10_0_0: flow_15_10_0_0 - 1000 edge_15_10_0_0 <= 0
 inactive_no_flow_15_11_0_0: flow_15_11_0_0 - 1000 edge_15_11_0_0 <= 0
 inactive_no_flow_15_12_0_0: flow_15_12_0_0 - 1000 edge_15_12_0_0 <= 0
 inactive_no_flow_15_13_0_0: flow_15_13_0_0 - 1000 edge_15_13_0_0 <= 0
 inactive_no_flow_15_14_0_0: flow_15_14_0_0 - 1000 edge_15_14_0_0 <= 0
 inactive_no_flow_15_16_0_0: flow_15_16_0_0 - 1000 edge_15_16_0_0 <= 0
 inactive_no_flow_16_15_0_0: flow_16_15_0_0 - 1000 edge_16_15_0_0 <= 0
Bounds
Binaries
 edge_0_1_0_0 edge_0_2_0_0 edge_0_6_0_0 edge_0_7_0_0 edge_0_11_0_0
 edge_0_15_0_0 edge_1_2_0_0 edge_1_3_0_0 edge_1_6_0_0 edge_1_7_0_0
 edge_1_9_0_0 edge_1_10_0_0 edge_1_11_0_0 edge_1_12_0_0 edge_1_13_0_0
 edge_1_14_0_0 edge_1_15_0_0 edge_1_16_0_0 edge_2_1_0_0 edge_2_3_0_0
 edge_2_4_0_0 edge_2_6_0_0 edge_2_7_0_0 edge_2_8_0_0 edge_2_9_0_0
 edge_2_10_0_0 edge_2_11_0_0 edge_2_12_0_0 edge_2_13_0_0 edge_2_14_0_0
 edge_2_15_0_0 edge_2_16_0_0 edge_3_1_0_0 edge_3_2_0_0 edge_3_4_0_0
 edge_3_6_0_0 edge_3_7_0_0 edge_3_9_0_0 edge_3_10_0_0 edge_3_11_0_0
 edge_3_12_0_0 edge_3_15_0_0 edge_3_16_0_0 edge_4_6_0_0 edge_6_1_0_0
 edge_6_2_0_0 edge_6_3_0_0 edge_6_4_0_0 edge_6_7_0_0 edge_6_8_0_0
 edge_6_9_0_0 edge_6_10_0_0 edge_6_11_0_0 edge_6_12_0_0 edge_6_13_0_0
 edge_6_14_0_0 edge_6_15_0_0 edge_6_16_0_0 edge_7_1_0_0 edge_7_2_0_0
 edge_7_3_0_0 edge_7_4_0_0 edge_7_6_0_0 edge_7_8_0_0 edge_7_9_0_0
 edge_7_10_0_0 edge_7_11_0_0 edge_7_12_0_0 edge_7_13_0_0 edge_7_14_0_0
 edge_7_15_0_0 edge_7_16_0_0 edge_8_2_0_0 edge_8_4_0_0 edge_8_6_0_0
 edge_8_7_0_0 edge_9_2_0_0 edge_9_3_0_0 edge_9_6_0_0 edge_9_7_0_0
 edge_9_10_0_0 edge_9_11_0_0 edge_10_7_0_0 edge_10_9_0_0 edge_10_11_0_0
 edge_11_1_0_0 edge_11_2_0_0 edge_11_3_0_0 edge_11_4_0_0 edge_11_6_0_0
 edge_11_7_0_0 edge_11_9_0_0 edge_11_10_0_0 edge_11_11_0_0 edge_11_12_0_0
 edge_11_13_0_0 edge_11_14_0_0 edge_11_15_0_0 edge_11_16_0_0 edge_12_1_0_0
 edge_12_7_0_0 edge_12_9_0_0 edge_12_10_0_0 edge_12_11_0_0 edge_12_13_0_0
 edge_12_14_0_0 edge_12_15_0_0 edge_12_16_0_0 edge_13_11_0_0 edge_13_12_0_0
 edge_13_14_0_0 edge_14_4_0_0 edge_14_6_0_0 edge_14_7_0_0 edge_14_10_0_0
 edge_14_11_0_0 edge_14_12_0_0 edge_14_13_0_0 edge_14_15_0_0 edge_14_16_0_0
 edge_15_1_0_0 edge_15_2_0_0 edge_15_3_0_0 edge_15_4_0_0 edge_15_6_0_0
 edge_15_7_0_0 edge_15_9_0_0 edge_15_10_0_0 edge_15_11_0_0 edge_15_12_0_0
 edge_15_13_0_0 edge_15_14_0_0 edge_15_16_0_0 edge_16_15_0_0
End
